10	5
0	5	5	4	2	1	3
1	1	10
2	3	8	10	11
3	4	6	10	9	7
4	1	10
5	2	9	8
6	1	11
7	1	11
8	1	11
9	1	11
10	1	11
11	0
0	0	0	0	0	0	0
1	5	2	2	3	5	4
2	10	3	4	3	5	1
3	2	5	4	3	2	4
4	3	1	5	3	2	4
5	6	5	4	1	3	1
6	1	5	1	5	1	5
7	1	3	5	2	3	1
8	7	4	1	5	3	5
9	10	5	2	2	4	5
10	9	2	4	1	2	2
11	0	0	0	0	0	0
5	5	5	5	5
